language ESSENCE' 1.0
letting initGrid be [
    [1, 1, 1, 1, 1],
[1, 1, 1, 1, 2],
[2, 1, 3, 4, 4],
[1, 2, 2, 4, 3],
[2, 2, 1, 2, 1],
[4, 5, 5, 3, 4]
    ]
letting goalBlocksRemaining be 5
letting noSteps be 19
